15
105
0 1 59
0 2 24
0 3 39
0 4 63
0 5 9
0 6 11
0 7 90
0 8 24
0 9 66
0 10 10
0 11 97
0 12 16
0 13 39
0 14 62
1 2 42
1 3 96
1 4 32
1 5 22
1 6 100
1 7 92
1 8 32
1 9 68
1 10 88
1 11 57
1 12 29
1 13 13
1 14 24
2 3 84
2 4 71
2 5 7
2 6 70
2 7 76
2 8 72
2 9 79
2 10 84
2 11 45
2 12 14
2 13 48
2 14 3
3 4 90
3 5 67
3 6 2
3 7 64
3 8 10
3 9 54
3 10 87
3 11 13
3 12 20
3 13 44
3 14 100
4 5 54
4 6 92
4 7 63
4 8 34
4 9 91
4 10 58
4 11 12
4 12 98
4 13 63
4 14 80
5 6 40
5 7 10
5 8 29
5 9 95
5 10 31
5 11 87
5 12 96
5 13 84
5 14 10
6 7 30
6 8 39
6 9 54
6 10 13
6 11 26
6 12 5
6 13 79
6 14 96
7 8 13
7 9 71
7 10 46
7 11 65
7 12 50
7 13 19
7 14 74
8 9 53
8 10 31
8 11 32
8 12 83
8 13 87
8 14 83
9 10 25
9 11 94
9 12 16
9 13 98
9 14 18
10 11 48
10 12 49
10 13 16
10 14 83
11 12 90
11 13 35
11 14 91
12 13 29
12 14 8
13 14 49
0
